NAME          DCAP_2_4_3_200_SS172
ROWS
 N  OBJ
 L  CON1
 L  CON2
 L  CON3
 L  CON4
 L  CON5
 L  CON6
 L  CON7
 L  CON8
 L  CON9
 L  CON10
 L  CON11
 L  CON12
 E  CON13
 E  CON14
 E  CON15
 E  CON16
 E  CON17
 E  CON18
 E  CON19
 E  CON20
 E  CON21
 E  CON22
 E  CON23
 E  CON24
COLUMNS
    x[1,1]    OBJ       6.180167      CON1      1.000000    
    x[1,1]    CON7      -1.000000     CON8      -1.000000   
    x[1,1]    CON9      -1.000000   
    x[1,2]    OBJ       6.563535      CON2      1.000000    
    x[1,2]    CON8      -1.000000     CON9      -1.000000   
    x[1,3]    OBJ       7.443064      CON3      1.000000    
    x[1,3]    CON9      -1.000000   
    x[2,1]    OBJ       6.732585      CON4      1.000000    
    x[2,1]    CON10     -1.000000     CON11     -1.000000   
    x[2,1]    CON12     -1.000000   
    x[2,2]    OBJ       5.039546      CON5      1.000000    
    x[2,2]    CON11     -1.000000     CON12     -1.000000   
    x[2,3]    OBJ       6.054841      CON6      1.000000    
    x[2,3]    CON12     -1.000000   
    MARKER    'MARKER'                'INTORG'
    u[1,1]    OBJ       48.076654     CON1      -1.000000   
    u[1,2]    OBJ       20.066487     CON2      -1.000000   
    u[1,3]    OBJ       32.230043     CON3      -1.000000   
    u[2,1]    OBJ       49.996186     CON4      -1.000000   
    u[2,2]    OBJ       49.466655     CON5      -1.000000   
    u[2,3]    OBJ       27.484319     CON6      -1.000000   
    y[1,1,1]  OBJ       6.544913      CON7      1.258826    
    y[1,1,1]  CON13     1.000000    
    y[1,1,2]  OBJ       5.755831      CON8      0.965795    
    y[1,1,2]  CON14     1.000000    
    y[1,1,3]  OBJ       5.211651      CON9      0.754858    
    y[1,1,3]  CON15     1.000000    
    y[1,2,1]  OBJ       5.548734      CON7      0.965280    
    y[1,2,1]  CON16     1.000000    
    y[1,2,2]  OBJ       7.122504      CON8      1.341746    
    y[1,2,2]  CON17     1.000000    
    y[1,2,3]  OBJ       6.445936      CON9      1.127240    
    y[1,2,3]  CON18     1.000000    
    y[1,3,1]  OBJ       8.386323      CON7      1.248037    
    y[1,3,1]  CON19     1.000000    
    y[1,3,2]  OBJ       7.162155      CON8      0.867433    
    y[1,3,2]  CON20     1.000000    
    y[1,3,3]  OBJ       8.741471      CON9      1.386038    
    y[1,3,3]  CON21     1.000000    
    y[1,4,1]  OBJ       7.261034      CON7      1.165905    
    y[1,4,1]  CON22     1.000000    
    y[1,4,2]  OBJ       6.408095      CON8      0.617715    
    y[1,4,2]  CON23     1.000000    
    y[1,4,3]  OBJ       5.523091      CON9      1.001679    
    y[1,4,3]  CON24     1.000000    
    y[2,1,1]  OBJ       6.829850      CON10     1.258826    
    y[2,1,1]  CON13     1.000000    
    y[2,1,2]  OBJ       7.240745      CON11     0.965795    
    y[2,1,2]  CON14     1.000000    
    y[2,1,3]  OBJ       8.980148      CON12     0.754858    
    y[2,1,3]  CON15     1.000000    
    y[2,2,1]  OBJ       5.416670      CON10     0.965280    
    y[2,2,1]  CON16     1.000000    
    y[2,2,2]  OBJ       7.676666      CON11     1.341746    
    y[2,2,2]  CON17     1.000000    
    y[2,2,3]  OBJ       6.058018      CON12     1.127240    
    y[2,2,3]  CON18     1.000000    
    y[2,3,1]  OBJ       6.444865      CON10     1.248037    
    y[2,3,1]  CON19     1.000000    
    y[2,3,2]  OBJ       6.769558      CON11     0.867433    
    y[2,3,2]  CON20     1.000000    
    y[2,3,3]  OBJ       6.702482      CON12     1.386038    
    y[2,3,3]  CON21     1.000000    
    y[2,4,1]  OBJ       9.668303      CON10     1.165905    
    y[2,4,1]  CON22     1.000000    
    y[2,4,2]  OBJ       7.104517      CON11     0.617715    
    y[2,4,2]  CON23     1.000000    
    y[2,4,3]  OBJ       8.825122      CON12     1.001679    
    y[2,4,3]  CON24     1.000000    
    z[1,1]    OBJ       750.481464    CON13     1.000000    
    z[1,2]    OBJ       863.021509    CON14     1.000000    
    z[1,3]    OBJ       656.604104    CON15     1.000000    
    z[2,1]    OBJ       795.457135    CON16     1.000000    
    z[2,2]    OBJ       900.966648    CON17     1.000000    
    z[2,3]    OBJ       739.946929    CON18     1.000000    
    z[3,1]    OBJ       787.704597    CON19     1.000000    
    z[3,2]    OBJ       872.797125    CON20     1.000000    
    z[3,3]    OBJ       549.817868    CON21     1.000000    
    z[4,1]    OBJ       761.547787    CON22     1.000000    
    z[4,2]    OBJ       890.659574    CON23     1.000000    
    z[4,3]    OBJ       952.900161    CON24     1.000000    
    MARKER    'MARKER'                 'INTEND'
RHS
    RHS       CON1      -0.000000     CON2      -0.000000   
    RHS       CON3      -0.000000     CON4      -0.000000   
    RHS       CON5      -0.000000     CON6      -0.000000   
    RHS       CON7      -0.000000     CON8      -0.000000   
    RHS       CON9      -0.000000     CON10     -0.000000   
    RHS       CON11     -0.000000     CON12     -0.000000   
    RHS       CON13     1.000000      CON14     1.000000    
    RHS       CON15     1.000000      CON16     1.000000    
    RHS       CON17     1.000000      CON18     1.000000    
    RHS       CON19     1.000000      CON20     1.000000    
    RHS       CON21     1.000000      CON22     1.000000    
    RHS       CON23     1.000000      CON24     1.000000    
BOUNDS
 BV BOUND     u[1,1]  
 BV BOUND     u[1,2]  
 BV BOUND     u[1,3]  
 BV BOUND     u[2,1]  
 BV BOUND     u[2,2]  
 BV BOUND     u[2,3]  
 BV BOUND     y[1,1,1]
 BV BOUND     y[1,1,2]
 BV BOUND     y[1,1,3]
 BV BOUND     y[1,2,1]
 BV BOUND     y[1,2,2]
 BV BOUND     y[1,2,3]
 BV BOUND     y[1,3,1]
 BV BOUND     y[1,3,2]
 BV BOUND     y[1,3,3]
 BV BOUND     y[1,4,1]
 BV BOUND     y[1,4,2]
 BV BOUND     y[1,4,3]
 BV BOUND     y[2,1,1]
 BV BOUND     y[2,1,2]
 BV BOUND     y[2,1,3]
 BV BOUND     y[2,2,1]
 BV BOUND     y[2,2,2]
 BV BOUND     y[2,2,3]
 BV BOUND     y[2,3,1]
 BV BOUND     y[2,3,2]
 BV BOUND     y[2,3,3]
 BV BOUND     y[2,4,1]
 BV BOUND     y[2,4,2]
 BV BOUND     y[2,4,3]
 BV BOUND     z[1,1]  
 BV BOUND     z[1,2]  
 BV BOUND     z[1,3]  
 BV BOUND     z[2,1]  
 BV BOUND     z[2,2]  
 BV BOUND     z[2,3]  
 BV BOUND     z[3,1]  
 BV BOUND     z[3,2]  
 BV BOUND     z[3,3]  
 BV BOUND     z[4,1]  
 BV BOUND     z[4,2]  
 BV BOUND     z[4,3]  
ENDATA
